ATOMIC_SPECIES
C 1.00 C_ONCV_PBE-1.0.upf

NUMERICAL_ORBITAL
C_gga_8au_100Ry_2s2p1d1f.orb

LATTICE_CONSTANT
1.889726164

LATTICE_VECTORS
0  2.00  2.00
2.00  0  2.00
2.00  2.00  0

ATOMIC_POSITIONS
Direct

C
0
2
0.0000  0.0000  0.0000  0 0 0
0.25  0.25  0.25  0 0 0

