INPUT_PARAMETERS
#Parameters	(General)
pseudo_dir		./

calculation	scf
gamma_only	1
ntype			1	
nbands			7
nspin			2
#init_chg		file
#read_file_dir		./
out_chg 		1
#Parameters (Accuracy)
ecutwfc			100

mixing_type	broyden
mixing_ndim	8
mixing_gg0	0.0
mixing_gg0_mag   0.0
mixing_beta	0.4
mixing_beta_mag  0.4
scf_thr		1e-6

smearing_method 	gaussian
smearing_sigma		1e-4
basis_type		lcao
ks_solver  genelpa
dft_functional			pbe
rpa				1
symmetry			0
