INPUT_PARAMETERS
#Parameters	(General)
pseudo_dir		./

calculation	scf
gamma_only	1
ntype			1	
nbands			13
nspin			2
init_chg		file
read_file_dir		./
#out_chg 		1
#Parameters (Accuracy)
ecutwfc			400

mixing_type	broyden
mixing_ndim	8
mixing_gg0	0.0
mixing_gg0_mag   0.0
mixing_beta	0.4
mixing_beta_mag  0.4
scf_thr		1e-4

smearing_method 	gaussian
smearing_sigma		1e-7
basis_type		lcao
ks_solver  genelpa
dft_functional			pbe
rpa				1
symmetry			0
exx_separate_loop		1
exx_ccp_rmesh_times		5
